results - Copia/sol/BA_01_deadline_heurFalse.sol
# Solution for model JobShopModel
# Objective value = 28
y[0,0,1] 1
y[0,1,1] 1
y[1,0,0] 1
y[1,1,1] 1
x[0,0,0,0] 0
x[0,0,0,1] 1
x[0,0,1,0] 0
x[0,0,1,1] 1
x[0,1,0,0] 0
x[0,1,0,1] 0
x[0,1,1,0] 0
x[0,1,1,1] 1
x[1,0,0,0] 0
x[1,0,0,1] 0
x[1,0,1,0] 0
x[1,0,1,1] 0
x[1,1,0,0] 0
x[1,1,0,1] 0
x[1,1,1,0] 0
x[1,1,1,1] 0
s[0,0,1] 30
s[0,1,1] 20
s[1,0,0] 5
s[1,1,1] 0
Z_FO 28
C25 1
C26 1
